TCS_Benchmarks/redos_fix/snort3_output_distinct_3103_3102_12_0.txt
([^>]*)(\s*)
([^>]*)(([jJ][aA][rR]\:|[vV][iI][eE][wW]-[sS][oO][uU][rR][cC][eE]\:)?)(\s*)